10J3M/DAT/10J3MNNR-6.dat
10 3
22.2058 36.2726
15.8751 34.7835
18.0729 5.3271
21.2004 41.3475
27.1895 14.7237
28.3938 9.6336
18.2781 41.5846
28.2574 8.5101
22.2933 44.1284
24.8895 34.34
270.6511