10J3M/SOL/10J3MNNR-6.sol
solution status: optimal solution found
objective value:                     75.5519333333333
x#1#2                               0.904284766442401 	(obj:0)
x#1#3                              0.0957152335575991 	(obj:0)
x#2#3                                               1 	(obj:0)
x#3#3                                               1 	(obj:0)
x#4#3                                               1 	(obj:0)
x#5#1                                               1 	(obj:0)
x#6#1                                               1 	(obj:0)
x#7#3                                               1 	(obj:0)
x#8#1                               0.706669167486511 	(obj:0)
x#8#2                               0.293330832513489 	(obj:0)
x#9#2                                               1 	(obj:0)
x#10#2                                              1 	(obj:0)
z                                    75.5519333333333 	(obj:1)
